p cnf 39 43
-1 33 0 
-2 33 0 
-2 -3 33 0 
-4 33 0 
-5 33 0 
-6 33 0 
-7 34 0 
-8 35 0 
-9 34 0 
-10 -2 35 0 
-10 -4 34 0 
-11 35 0 
-8 33 0 
-12 33 0 
-13 33 0 
-2 -14 15 33 0 
-12 -15 14 33 0 
-16 -17 -11 33 0 
-18 34 0 
-9 35 0 
-19 -20 29 -21 -22 -10 36 0 
-23 37 0 
-24 38 0 
-20 29 39 0 
-16 -1 33 0 
-25 -2 33 0 
-26 33 0 
-27 33 0 
-28 33 0 
-11 33 0 
-29 20 34 0 
-1 34 0 
-1 35 0 
-2 35 0 
-30 35 0 
-7 -22 34 0 
-26 35 0 
-26 34 0 
-8 34 0 
-8 -31 34 0 
-31 33 0 
-10 -32 35 0 
-2 -10 34 0 
